NAME : XML100_2335_20
DIMENSION : 101
NB_CLUSTERS : 4
CLUSTERING_ALG : KMedoids
CLUSTERING_PARAMS : k(3)
CLUSTERS
1 0
2 1 4 6 7 10 14 15 21 23 25 27 28 30 36 38 41 43 51 53 54 56 57 59 61 62 65 66 67 69 70 72 79 81 84 85 86 87 89 90 93 98 99
3 2 8 9 11 12 22 29 32 35 44 46 49 50 55 58 64 78 80 83 88 95 96
4 3 5 13 16 17 18 19 20 24 26 31 33 34 37 39 40 42 45 47 48 52 60 63 68 71 73 74 75 76 77 82 91 92 94 97 100
EOF